10 10 3

0 84 187 463 332 64 481 237 147 278 
474 0 53 376 272 349 289 76 130 279 
306 339 0 291 266 485 401 180 421 200 
497 103 100 0 191 344 238 154 383 459 
341 119 312 119 0 93 71 201 71 370 
197 97 206 182 353 0 252 424 326 236 
324 456 363 474 452 416 0 280 350 260 
224 454 142 182 50 418 444 0 326 217 
466 478 445 91 381 493 455 62 0 101 
206 436 377 148 466 89 461 195 247 0 

278.25 0 2
278.25 1 8
278.25 2 1
278.25 3 1
278.25 4 1
278.25 5 1
278.25 6 8
278.25 7 0
278.25 8 7
278.25 9 3

